33D32945 STP File, STP Format Version 1.0

SECTION Comment
Name "i640-005-PCST"
Creator "Indaco Biazzo" 
Remark "derived from Incidence graph by Cees Duin"
END

SECTION Graph
Nodes 640
Edges 960
E 1 77 207.000000
E 1 107 200.000000
E 1 148 210.000000
E 1 196 196.000000
E 1 244 198.000000
E 1 339 204.000000
E 1 369 197.000000
E 1 429 197.000000
E 2 123 205.000000
E 2 317 198.000000
E 3 624 200.000000
E 4 305 196.000000
E 4 542 210.000000
E 5 98 207.000000
E 5 102 207.000000
E 5 446 194.000000
E 6 304 189.000000
E 6 503 205.000000
E 7 466 204.000000
E 8 394 201.000000
E 9 299 199.000000
E 10 61 105.000000
E 10 440 101.000000
E 10 496 105.000000
E 10 603 98.000000
E 11 217 101.000000
E 11 484 93.000000
E 12 29 98.000000
E 12 132 99.000000
E 12 338 101.000000
E 12 340 107.000000
E 12 424 93.000000
E 12 617 94.000000
E 13 268 106.000000
E 14 21 97.000000
E 14 181 103.000000
E 14 501 98.000000
E 15 269 104.000000
E 15 558 99.000000
E 16 135 111.000000
E 17 591 100.000000
E 17 616 100.000000
E 18 45 98.000000
E 18 126 104.000000
E 19 71 99.000000
E 20 174 88.000000
E 20 264 102.000000
E 20 488 100.000000
E 20 584 107.000000
E 20 609 100.000000
E 21 200 97.000000
E 22 94 97.000000
E 22 207 89.000000
E 22 214 99.000000
E 22 424 103.000000
E 22 511 101.000000
E 22 517 101.000000
E 22 551 100.000000
E 23 263 96.000000
E 23 297 105.000000
E 23 547 97.000000
E 24 114 108.000000
E 25 334 109.000000
E 26 157 94.000000
E 26 382 99.000000
E 27 391 101.000000
E 28 224 94.000000
E 28 285 98.000000
E 29 180 97.000000
E 29 207 103.000000
E 29 409 93.000000
E 30 155 101.000000
E 30 279 92.000000
E 30 314 103.000000
E 30 491 97.000000
E 30 603 97.000000
E 31 317 94.000000
E 32 540 95.000000
E 33 90 104.000000
E 33 124 93.000000
E 33 125 91.000000
E 33 427 105.000000
E 33 616 99.000000
E 34 434 101.000000
E 35 390 97.000000
E 36 160 95.000000
E 36 540 91.000000
E 36 579 105.000000
E 37 43 96.000000
E 37 286 103.000000
E 37 355 107.000000
E 38 104 98.000000
E 38 324 102.000000
E 39 424 96.000000
E 39 426 99.000000
E 39 591 109.000000
E 40 312 97.000000
E 40 412 98.000000
E 41 43 107.000000
E 41 205 95.000000
E 41 318 106.000000
E 41 587 90.000000
E 42 488 90.000000
E 43 184 103.000000
E 43 293 104.000000
E 43 294 85.000000
E 43 390 100.000000
E 44 191 101.000000
E 44 608 95.000000
E 45 97 99.000000
E 45 294 100.000000
E 46 140 103.000000
E 46 451 101.000000
E 47 244 97.000000
E 47 588 103.000000
E 48 96 98.000000
E 48 617 92.000000
E 49 181 101.000000
E 49 234 97.000000
E 50 498 107.000000
E 51 187 112.000000
E 51 369 98.000000
E 51 393 104.000000
E 51 450 100.000000
E 51 527 114.000000
E 52 328 90.000000
E 52 371 97.000000
E 52 421 101.000000
E 52 555 93.000000
E 53 256 96.000000
E 53 516 98.000000
E 53 579 100.000000
E 54 323 105.000000
E 54 435 100.000000
E 54 438 98.000000
E 54 623 107.000000
E 55 186 99.000000
E 55 272 107.000000
E 55 545 99.000000
E 56 103 96.000000
E 56 104 106.000000
E 57 173 97.000000
E 57 406 102.000000
E 57 433 102.000000
E 57 476 93.000000
E 58 84 102.000000
E 58 472 101.000000
E 58 489 100.000000
E 59 65 88.000000
E 59 112 91.000000
E 59 128 95.000000
E 59 175 96.000000
E 59 199 101.000000
E 59 244 111.000000
E 59 415 101.000000
E 59 609 96.000000
E 60 135 99.000000
E 60 202 100.000000
E 60 505 107.000000
E 61 127 102.000000
E 61 579 97.000000
E 62 266 98.000000
E 62 575 95.000000
E 63 368 113.000000
E 63 565 103.000000
E 63 637 98.000000
E 64 420 95.000000
E 64 472 89.000000
E 65 447 94.000000
E 66 164 101.000000
E 66 530 100.000000
E 67 93 99.000000
E 67 154 102.000000
E 67 334 98.000000
E 67 525 100.000000
E 67 612 105.000000
E 68 294 97.000000
E 69 208 100.000000
E 69 564 99.000000
E 69 596 104.000000
E 70 278 97.000000
E 70 348 100.000000
E 70 352 101.000000
E 71 119 102.000000
E 71 173 100.000000
E 71 608 99.000000
E 72 285 105.000000
E 72 295 111.000000
E 73 128 102.000000
E 73 315 99.000000
E 73 521 100.000000
E 73 582 97.000000
E 74 264 100.000000
E 74 539 102.000000
E 75 337 103.000000
E 75 637 101.000000
E 76 118 106.000000
E 76 221 93.000000
E 76 260 92.000000
E 76 319 97.000000
E 77 182 92.000000
E 77 589 101.000000
E 77 601 94.000000
E 78 487 95.000000
E 78 541 95.000000
E 79 136 98.000000
E 79 285 91.000000
E 79 416 92.000000
E 79 436 100.000000
E 80 386 96.000000
E 80 447 99.000000
E 81 103 95.000000
E 82 131 94.000000
E 83 86 99.000000
E 83 131 100.000000
E 83 389 105.000000
E 84 203 109.000000
E 84 468 107.000000
E 84 470 107.000000
E 84 606 103.000000
E 85 282 92.000000
E 85 397 106.000000
E 85 538 101.000000
E 86 378 96.000000
E 86 604 107.000000
E 87 180 100.000000
E 87 265 106.000000
E 87 306 100.000000
E 87 410 98.000000
E 87 490 94.000000
E 87 530 96.000000
E 87 563 101.000000
E 88 265 88.000000
E 88 377 103.000000
E 88 580 104.000000
E 89 134 100.000000
E 89 306 97.000000
E 90 188 106.000000
E 90 411 91.000000
E 90 421 102.000000
E 90 566 95.000000
E 90 573 103.000000
E 90 620 98.000000
E 91 167 100.000000
E 91 260 102.000000
E 91 298 108.000000
E 91 369 106.000000
E 91 469 103.000000
E 91 523 98.000000
E 91 600 98.000000
E 92 411 105.000000
E 92 528 102.000000
E 93 110 100.000000
E 93 259 94.000000
E 93 290 108.000000
E 93 466 101.000000
E 93 467 110.000000
E 93 626 96.000000
E 95 504 106.000000
E 95 508 97.000000
E 95 549 99.000000
E 96 228 94.000000
E 96 260 92.000000
E 96 540 100.000000
E 96 628 112.000000
E 97 141 95.000000
E 97 448 99.000000
E 98 475 98.000000
E 99 339 102.000000
E 99 357 106.000000
E 100 200 103.000000
E 101 409 94.000000
E 101 527 98.000000
E 101 546 92.000000
E 102 129 110.000000
E 102 556 98.000000
E 103 379 97.000000
E 103 505 105.000000
E 103 550 103.000000
E 104 222 106.000000
E 104 329 92.000000
E 104 559 96.000000
E 105 172 110.000000
E 105 262 104.000000
E 105 391 93.000000
E 105 585 99.000000
E 105 635 106.000000
E 106 164 101.000000
E 106 278 102.000000
E 106 384 88.000000
E 106 557 95.000000
E 106 583 100.000000
E 107 196 100.000000
E 107 329 97.000000
E 107 563 94.000000
E 108 142 95.000000
E 108 166 95.000000
E 108 518 102.000000
E 109 336 102.000000
E 110 280 115.000000
E 110 507 96.000000
E 111 225 105.000000
E 112 337 105.000000
E 112 475 101.000000
E 113 350 98.000000
E 113 383 102.000000
E 113 474 101.000000
E 113 552 99.000000
E 113 568 103.000000
E 114 304 109.000000
E 114 477 102.000000
E 114 504 93.000000
E 114 584 95.000000
E 115 254 97.000000
E 115 507 96.000000
E 115 571 101.000000
E 116 145 93.000000
E 116 271 97.000000
E 117 289 97.000000
E 118 319 91.000000
E 118 438 101.000000
E 119 224 104.000000
E 119 266 102.000000
E 119 376 99.000000
E 119 452 94.000000
E 119 520 94.000000
E 120 482 107.000000
E 121 506 100.000000
E 122 259 96.000000
E 122 323 104.000000
E 122 634 103.000000
E 123 145 103.000000
E 123 362 94.000000
E 123 392 102.000000
E 123 402 96.000000
E 123 533 93.000000
E 124 136 98.000000
E 124 266 102.000000
E 124 363 99.000000
E 124 424 92.000000
E 124 567 98.000000
E 124 582 96.000000
E 125 225 95.000000
E 125 414 100.000000
E 125 416 84.000000
E 125 426 99.000000
E 125 492 95.000000
E 126 326 96.000000
E 126 491 105.000000
E 126 547 91.000000
E 126 610 101.000000
E 127 163 106.000000
E 127 381 93.000000
E 127 400 101.000000
E 128 218 104.000000
E 128 343 92.000000
E 128 460 106.000000
E 128 489 91.000000
E 129 254 100.000000
E 130 155 95.000000
E 130 526 99.000000
E 130 569 91.000000
E 131 391 99.000000
E 132 421 104.000000
E 132 619 87.000000
E 133 192 100.000000
E 133 582 105.000000
E 134 153 97.000000
E 134 161 93.000000
E 134 461 96.000000
E 135 189 97.000000
E 135 299 102.000000
E 135 397 104.000000
E 135 623 103.000000
E 136 363 99.000000
E 137 324 100.000000
E 137 629 94.000000
E 138 180 97.000000
E 138 348 100.000000
E 138 384 103.000000
E 138 394 101.000000
E 139 237 94.000000
E 139 502 107.000000
E 139 553 103.000000
E 140 294 95.000000
E 141 334 100.000000
E 142 268 109.000000
E 142 567 81.000000
E 142 595 102.000000
E 143 264 99.000000
E 143 352 97.000000
E 144 587 91.000000
E 145 356 100.000000
E 145 434 110.000000
E 145 519 100.000000
E 146 437 95.000000
E 147 249 94.000000
E 147 264 108.000000
E 147 585 96.000000
E 148 178 103.000000
E 148 472 101.000000
E 148 599 92.000000
E 149 235 105.000000
E 149 513 99.000000
E 150 352 99.000000
E 150 563 103.000000
E 150 565 95.000000
E 151 372 95.000000
E 151 379 102.000000
E 151 598 106.000000
E 152 202 100.000000
E 152 444 90.000000
E 153 310 99.000000
E 153 427 94.000000
E 153 609 104.000000
E 154 435 98.000000
E 154 464 111.000000
E 155 200 109.000000
E 155 259 97.000000
E 155 561 102.000000
E 156 382 97.000000
E 156 576 94.000000
E 157 217 106.000000
E 158 256 96.000000
E 159 407 98.000000
E 159 492 94.000000
E 159 621 98.000000
E 160 323 95.000000
E 160 349 93.000000
E 160 356 101.000000
E 161 360 104.000000
E 161 465 95.000000
E 162 287 97.000000
E 162 299 98.000000
E 162 313 97.000000
E 162 315 90.000000
E 162 376 105.000000
E 162 506 99.000000
E 162 548 102.000000
E 163 208 91.000000
E 163 319 95.000000
E 164 337 106.000000
E 164 431 106.000000
E 164 551 104.000000
E 164 573 94.000000
E 165 308 98.000000
E 166 168 98.000000
E 166 350 100.000000
E 166 484 102.000000
E 166 488 98.000000
E 166 503 101.000000
E 166 533 91.000000
E 167 320 100.000000
E 167 425 91.000000
E 168 614 102.000000
E 169 426 95.000000
E 170 302 95.000000
E 170 382 96.000000
E 171 205 98.000000
E 171 599 106.000000
E 172 203 108.000000
E 172 268 105.000000
E 174 194 97.000000
E 174 282 95.000000
E 174 347 110.000000
E 174 489 99.000000
E 174 606 99.000000
E 174 629 98.000000
E 175 342 97.000000
E 175 455 101.000000
E 175 581 95.000000
E 175 640 93.000000
E 176 239 101.000000
E 176 500 106.000000
E 176 601 104.000000
E 177 469 97.000000
E 178 232 95.000000
E 178 376 102.000000
E 178 416 95.000000
E 179 472 96.000000
E 179 588 103.000000
E 180 637 109.000000
E 181 312 101.000000
E 181 610 99.000000
E 182 217 101.000000
E 182 591 97.000000
E 182 621 105.000000
E 183 574 106.000000
E 184 240 105.000000
E 184 262 105.000000
E 184 408 99.000000
E 184 474 94.000000
E 184 510 106.000000
E 185 296 101.000000
E 186 307 101.000000
E 186 451 101.000000
E 187 228 91.000000
E 188 464 91.000000
E 188 613 101.000000
E 189 238 105.000000
E 190 555 93.000000
E 191 203 96.000000
E 191 262 93.000000
E 191 600 93.000000
E 192 382 100.000000
E 192 411 100.000000
E 192 566 95.000000
E 193 279 95.000000
E 194 356 98.000000
E 194 380 102.000000
E 195 209 107.000000
E 195 270 98.000000
E 195 598 98.000000
E 195 614 106.000000
E 195 636 96.000000
E 196 256 99.000000
E 197 421 95.000000
E 198 213 93.000000
E 198 333 102.000000
E 198 435 93.000000
E 199 311 102.000000
E 199 361 101.000000
E 199 464 98.000000
E 200 259 106.000000
E 200 285 95.000000
E 200 416 98.000000
E 201 255 97.000000
E 201 263 98.000000
E 201 380 96.000000
E 201 389 91.000000
E 202 417 102.000000
E 203 221 99.000000
E 203 382 97.000000
E 203 595 89.000000
E 203 630 94.000000
E 204 433 105.000000
E 205 382 105.000000
E 206 526 97.000000
E 206 552 100.000000
E 207 444 104.000000
E 208 328 98.000000
E 210 359 98.000000
E 210 408 103.000000
E 211 495 99.000000
E 211 555 104.000000
E 212 554 95.000000
E 213 415 98.000000
E 214 352 102.000000
E 214 365 93.000000
E 214 559 100.000000
E 215 265 103.000000
E 215 320 101.000000
E 215 486 89.000000
E 216 410 103.000000
E 216 532 98.000000
E 217 250 103.000000
E 217 262 104.000000
E 217 287 101.000000
E 217 301 92.000000
E 217 456 104.000000
E 217 476 102.000000
E 218 326 102.000000
E 219 315 99.000000
E 220 567 96.000000
E 221 415 108.000000
E 221 457 102.000000
E 222 265 94.000000
E 222 516 98.000000
E 223 237 106.000000
E 223 301 101.000000
E 223 386 95.000000
E 223 420 92.000000
E 224 239 96.000000
E 225 396 97.000000
E 225 556 101.000000
E 226 463 102.000000
E 227 354 105.000000
E 229 315 102.000000
E 229 430 100.000000
E 230 382 97.000000
E 230 459 101.000000
E 230 497 101.000000
E 230 587 105.000000
E 231 339 95.000000
E 231 438 102.000000
E 233 502 104.000000
E 233 507 103.000000
E 234 241 91.000000
E 234 318 102.000000
E 235 354 100.000000
E 236 640 97.000000
E 237 369 99.000000
E 237 371 97.000000
E 237 623 101.000000
E 238 621 115.000000
E 240 373 105.000000
E 240 397 95.000000
E 240 437 97.000000
E 240 504 92.000000
E 241 292 92.000000
E 241 294 87.000000
E 242 345 95.000000
E 242 617 95.000000
E 243 261 96.000000
E 243 499 96.000000
E 244 372 106.000000
E 244 463 95.000000
E 245 399 100.000000
E 246 410 93.000000
E 246 431 101.000000
E 247 309 94.000000
E 248 284 107.000000
E 248 481 102.000000
E 249 308 102.000000
E 249 418 104.000000
E 249 443 105.000000
E 249 596 105.000000
E 251 296 98.000000
E 252 380 94.000000
E 252 503 102.000000
E 252 520 96.000000
E 253 442 98.000000
E 254 256 94.000000
E 254 490 99.000000
E 254 500 100.000000
E 255 633 94.000000
E 256 401 96.000000
E 256 441 100.000000
E 256 525 100.000000
E 256 582 93.000000
E 257 449 104.000000
E 258 550 101.000000
E 259 559 91.000000
E 259 632 105.000000
E 260 375 105.000000
E 260 380 97.000000
E 260 568 109.000000
E 261 422 103.000000
E 261 558 93.000000
E 262 384 100.000000
E 262 487 100.000000
E 262 623 93.000000
E 263 478 98.000000
E 264 524 105.000000
E 264 583 104.000000
E 265 369 100.000000
E 265 597 96.000000
E 266 596 100.000000
E 267 358 100.000000
E 268 417 100.000000
E 270 273 104.000000
E 270 424 102.000000
E 270 482 106.000000
E 270 516 97.000000
E 270 617 96.000000
E 271 351 89.000000
E 271 470 100.000000
E 272 621 105.000000
E 272 629 107.000000
E 273 319 104.000000
E 273 490 103.000000
E 274 315 100.000000
E 274 363 94.000000
E 274 540 101.000000
E 275 390 108.000000
E 275 453 98.000000
E 275 639 103.000000
E 276 485 98.000000
E 276 606 104.000000
E 277 515 94.000000
E 278 507 107.000000
E 278 605 99.000000
E 278 633 96.000000
E 278 638 95.000000
E 281 439 95.000000
E 282 332 95.000000
E 282 594 107.000000
E 283 347 91.000000
E 283 485 95.000000
E 283 525 100.000000
E 283 596 96.000000
E 284 445 102.000000
E 284 494 94.000000
E 284 520 101.000000
E 284 558 96.000000
E 285 321 95.000000
E 285 389 97.000000
E 286 325 93.000000
E 286 452 108.000000
E 286 525 98.000000
E 287 436 98.000000
E 288 321 101.000000
E 289 368 91.000000
E 289 490 117.000000
E 289 574 106.000000
E 291 381 98.000000
E 292 294 102.000000
E 292 345 99.000000
E 292 530 91.000000
E 293 355 92.000000
E 293 554 99.000000
E 294 369 95.000000
E 294 458 102.000000
E 294 562 103.000000
E 296 485 112.000000
E 298 354 99.000000
E 298 515 100.000000
E 299 611 100.000000
E 299 615 102.000000
E 299 619 95.000000
E 300 378 96.000000
E 300 432 101.000000
E 302 536 94.000000
E 303 525 101.000000
E 303 535 100.000000
E 304 549 99.000000
E 305 327 94.000000
E 306 560 101.000000
E 306 600 102.000000
E 307 358 100.000000
E 307 577 100.000000
E 308 445 98.000000
E 309 382 100.000000
E 309 542 98.000000
E 310 336 103.000000
E 312 443 105.000000
E 312 569 100.000000
E 313 543 107.000000
E 314 341 93.000000
E 314 360 96.000000
E 314 467 92.000000
E 314 476 105.000000
E 314 506 98.000000
E 314 612 99.000000
E 315 413 96.000000
E 315 424 102.000000
E 316 465 94.000000
E 316 498 96.000000
E 317 401 99.000000
E 317 452 100.000000
E 318 532 96.000000
E 322 576 108.000000
E 324 399 103.000000
E 325 421 104.000000
E 326 548 104.000000
E 327 446 98.000000
E 327 486 112.000000
E 327 491 97.000000
E 329 335 106.000000
E 329 378 95.000000
E 329 475 98.000000
E 330 499 103.000000
E 331 389 101.000000
E 335 579 104.000000
E 336 391 100.000000
E 337 351 90.000000
E 337 477 98.000000
E 337 594 107.000000
E 337 612 99.000000
E 338 463 99.000000
E 339 346 103.000000
E 339 381 100.000000
E 342 370 105.000000
E 342 403 98.000000
E 342 446 98.000000
E 342 612 94.000000
E 343 353 97.000000
E 344 587 92.000000
E 346 635 105.000000
E 347 512 97.000000
E 347 592 96.000000
E 348 379 99.000000
E 350 625 96.000000
E 351 497 100.000000
E 351 556 100.000000
E 352 586 98.000000
E 353 382 100.000000
E 353 522 98.000000
E 354 458 104.000000
E 354 609 98.000000
E 356 400 104.000000
E 356 584 94.000000
E 356 608 96.000000
E 356 610 107.000000
E 357 615 98.000000
E 359 622 103.000000
E 360 586 102.000000
E 361 490 103.000000
E 361 596 106.000000
E 362 396 97.000000
E 362 454 99.000000
E 363 471 99.000000
E 363 531 97.000000
E 363 590 99.000000
E 364 379 103.000000
E 364 392 99.000000
E 364 480 94.000000
E 366 511 105.000000
E 366 570 102.000000
E 367 538 104.000000
E 367 576 96.000000
E 368 592 106.000000
E 369 445 91.000000
E 369 576 103.000000
E 369 584 101.000000
E 372 532 93.000000
E 373 592 104.000000
E 374 607 99.000000
E 375 473 104.000000
E 375 568 104.000000
E 379 631 97.000000
E 380 419 100.000000
E 381 505 98.000000
E 382 543 98.000000
E 382 633 92.000000
E 384 629 96.000000
E 385 485 101.000000
E 386 509 106.000000
E 387 595 94.000000
E 388 589 100.000000
E 389 398 101.000000
E 389 422 95.000000
E 389 542 104.000000
E 389 584 103.000000
E 390 418 101.000000
E 391 395 106.000000
E 393 424 94.000000
E 394 520 100.000000
E 394 565 97.000000
E 395 584 98.000000
E 396 525 95.000000
E 398 466 91.000000
E 398 593 92.000000
E 399 408 100.000000
E 399 457 102.000000
E 401 418 104.000000
E 401 430 98.000000
E 403 623 106.000000
E 404 604 104.000000
E 404 616 93.000000
E 405 425 96.000000
E 405 487 104.000000
E 406 584 100.000000
E 407 613 98.000000
E 407 640 100.000000
E 408 603 87.000000
E 410 475 95.000000
E 411 432 103.000000
E 415 572 103.000000
E 415 612 98.000000
E 416 625 106.000000
E 417 436 98.000000
E 418 537 95.000000
E 418 569 96.000000
E 422 447 97.000000
E 422 459 94.000000
E 422 590 95.000000
E 423 582 99.000000
E 424 499 106.000000
E 424 527 101.000000
E 425 505 102.000000
E 425 544 93.000000
E 427 449 97.000000
E 428 589 97.000000
E 429 444 94.000000
E 429 475 101.000000
E 430 575 99.000000
E 433 578 102.000000
E 433 619 108.000000
E 434 568 99.000000
E 435 621 97.000000
E 436 604 100.000000
E 437 525 105.000000
E 438 545 93.000000
E 438 562 101.000000
E 439 506 98.000000
E 439 563 101.000000
E 442 485 97.000000
E 443 542 100.000000
E 445 558 96.000000
E 445 629 100.000000
E 446 610 101.000000
E 448 476 94.000000
E 449 529 106.000000
E 450 616 88.000000
E 451 551 97.000000
E 452 627 101.000000
E 453 631 100.000000
E 454 612 88.000000
E 455 553 99.000000
E 458 546 106.000000
E 460 591 104.000000
E 461 469 106.000000
E 462 575 91.000000
E 464 606 103.000000
E 465 533 99.000000
E 468 479 90.000000
E 472 483 107.000000
E 472 493 100.000000
E 473 597 94.000000
E 474 611 106.000000
E 478 539 102.000000
E 478 540 97.000000
E 479 590 102.000000
E 481 534 100.000000
E 481 577 93.000000
E 482 496 103.000000
E 485 508 105.000000
E 485 530 101.000000
E 486 636 93.000000
E 487 621 102.000000
E 488 580 105.000000
E 489 574 100.000000
E 491 620 97.000000
E 492 539 100.000000
E 492 626 106.000000
E 493 603 102.000000
E 495 576 91.000000
E 496 529 107.000000
E 496 606 85.000000
E 503 581 103.000000
E 508 600 100.000000
E 509 558 101.000000
E 511 573 101.000000
E 513 572 108.000000
E 514 605 103.000000
E 514 621 92.000000
E 514 624 91.000000
E 522 555 99.000000
E 524 599 104.000000
E 529 544 104.000000
E 533 615 104.000000
E 534 568 93.000000
E 538 549 92.000000
E 540 570 104.000000
E 541 556 98.000000
E 542 574 100.000000
E 544 632 92.000000
E 545 549 88.000000
E 545 600 101.000000
E 549 610 104.000000
E 552 610 104.000000
E 552 620 103.000000
E 553 624 101.000000
E 554 632 91.000000
E 556 640 107.000000
E 558 587 101.000000
E 563 574 95.000000
E 566 581 103.000000
E 570 609 97.000000
E 571 604 104.000000
E 582 623 99.000000
E 587 604 95.000000
E 591 633 105.000000
E 593 631 98.000000
E 595 598 93.000000
E 597 609 101.000000
E 602 610 105.000000
E 607 610 91.000000
E 618 635 100.000000
END

SECTION Terminals
Terminals 9
TP 1 556.000000
TP 2 276.000000
TP 3 588.000000
TP 4 240.000000
TP 5 388.000000
TP 6 184.000000
TP 7 616.000000
TP 8 820.000000
TP 9 440.000000
END

EOF
